SECTION Graph
Nodes 499
Edges 861
E 1 2 5
E 2 3 5
E 3 4 5
E 4 5 5
E 5 6 5
E 6 7 5
E 7 8 5
E 8 9 5
E 9 10 5
E 10 11 5
E 11 12 5
E 12 13 5
E 13 14 5
E 14 15 5
E 15 16 5
E 16 17 5
E 18 19 5
E 19 20 5
E 20 21 5
E 21 22 5
E 22 23 5
E 23 24 5
E 24 25 5
E 25 26 5
E 26 27 5
E 27 28 5
E 28 29 5
E 29 30 5
E 30 31 5
E 2 32 13
E 3 33 13
E 4 34 13
E 5 35 13
E 7 36 13
E 9 37 13
E 11 38 13
E 12 39 13
E 13 40 13
E 14 41 13
E 15 42 13
E 17 43 13
E 18 44 13
E 19 45 13
E 20 46 13
E 21 47 13
E 22 48 13
E 23 49 13
E 24 50 13
E 27 53 13
E 28 54 13
E 29 55 13
E 30 56 13
E 31 57 13
E 32 33 5
E 33 34 5
E 34 35 5
E 38 39 5
E 39 40 5
E 40 41 5
E 41 42 5
E 44 45 5
E 45 46 5
E 46 47 5
E 47 48 5
E 48 49 5
E 49 50 5
E 50 51 5
E 51 52 5
E 52 53 5
E 53 54 5
E 54 55 5
E 55 56 5
E 56 57 5
E 32 59 13
E 33 60 13
E 34 61 13
E 35 62 13
E 36 63 13
E 37 64 13
E 38 65 13
E 39 66 13
E 40 67 13
E 41 68 13
E 42 69 13
E 43 70 13
E 44 72 13
E 45 73 13
E 46 74 13
E 47 75 13
E 48 76 13
E 49 77 13
E 50 78 13
E 51 79 13
E 52 80 13
E 53 81 13
E 54 82 13
E 55 83 13
E 56 84 13
E 57 85 13
E 58 59 5
E 59 60 5
E 60 61 5
E 61 62 5
E 65 66 5
E 66 67 5
E 67 68 5
E 68 69 5
E 70 71 5
E 71 72 5
E 72 73 5
E 73 74 5
E 74 75 5
E 75 76 5
E 76 77 5
E 77 78 5
E 78 79 5
E 79 80 5
E 80 81 5
E 81 82 5
E 82 83 5
E 83 84 5
E 84 85 5
E 58 86 13
E 59 87 13
E 60 88 13
E 61 89 13
E 62 90 13
E 63 92 13
E 64 94 13
E 65 96 13
E 66 97 13
E 67 98 13
E 68 99 13
E 69 100 13
E 70 102 13
E 71 103 13
E 72 104 13
E 73 105 13
E 74 106 13
E 75 107 13
E 76 108 13
E 77 109 13
E 78 110 13
E 79 111 13
E 80 112 13
E 81 113 13
E 82 114 13
E 83 115 13
E 84 116 13
E 85 117 13
E 86 87 5
E 87 88 5
E 88 89 5
E 89 90 5
E 90 91 5
E 91 92 5
E 92 93 5
E 93 94 5
E 94 95 5
E 95 96 5
E 96 97 5
E 97 98 5
E 98 99 5
E 99 100 5
E 100 101 5
E 101 102 5
E 102 103 5
E 103 104 5
E 104 105 5
E 105 106 5
E 106 107 5
E 107 108 5
E 108 109 5
E 109 110 5
E 110 111 5
E 111 112 5
E 112 113 5
E 113 114 5
E 114 115 5
E 115 116 5
E 116 117 5
E 86 118 13
E 87 119 13
E 88 120 13
E 89 121 13
E 90 122 13
E 91 123 13
E 92 124 13
E 93 125 13
E 94 126 13
E 95 127 13
E 96 128 13
E 97 129 13
E 98 130 13
E 99 131 13
E 100 132 13
E 101 133 13
E 102 134 13
E 103 135 13
E 104 136 13
E 105 137 13
E 108 140 13
E 109 141 13
E 111 142 13
E 112 143 13
E 113 144 13
E 114 145 13
E 115 146 13
E 116 147 13
E 118 119 5
E 119 120 5
E 120 121 5
E 121 122 5
E 122 123 5
E 123 124 5
E 124 125 5
E 125 126 5
E 126 127 5
E 127 128 5
E 128 129 5
E 129 130 5
E 130 131 5
E 131 132 5
E 132 133 5
E 133 134 5
E 134 135 5
E 135 136 5
E 136 137 5
E 137 138 5
E 138 139 5
E 139 140 5
E 140 141 5
E 142 143 5
E 143 144 5
E 144 145 5
E 145 146 5
E 146 147 5
E 118 148 13
E 119 149 13
E 120 150 13
E 122 151 13
E 123 152 13
E 124 153 13
E 125 154 13
E 128 157 13
E 129 158 13
E 130 159 13
E 131 160 13
E 132 161 13
E 133 162 13
E 134 163 13
E 135 164 13
E 136 165 13
E 137 166 13
E 138 167 13
E 139 168 13
E 140 169 13
E 141 170 13
E 142 171 13
E 144 172 13
E 145 173 13
E 146 174 13
E 147 175 13
E 148 149 5
E 149 150 5
E 151 152 5
E 152 153 5
E 153 154 5
E 154 155 5
E 155 156 5
E 156 157 5
E 157 158 5
E 158 159 5
E 159 160 5
E 160 161 5
E 161 162 5
E 162 163 5
E 163 164 5
E 164 165 5
E 165 166 5
E 166 167 5
E 167 168 5
E 168 169 5
E 169 170 5
E 172 173 5
E 173 174 5
E 174 175 5
E 148 176 13
E 149 177 13
E 150 178 13
E 151 179 13
E 152 180 13
E 153 181 13
E 154 182 13
E 155 183 13
E 156 184 13
E 157 185 13
E 158 186 13
E 159 187 13
E 160 188 13
E 161 189 13
E 162 190 13
E 163 191 13
E 164 192 13
E 165 193 13
E 166 194 13
E 167 195 13
E 168 196 13
E 169 197 13
E 170 198 13
E 171 200 13
E 172 201 13
E 173 202 13
E 174 203 13
E 175 204 13
E 176 177 5
E 177 178 5
E 179 180 5
E 180 181 5
E 181 182 5
E 182 183 5
E 183 184 5
E 184 185 5
E 185 186 5
E 186 187 5
E 187 188 5
E 188 189 5
E 189 190 5
E 190 191 5
E 191 192 5
E 192 193 5
E 193 194 5
E 194 195 5
E 195 196 5
E 196 197 5
E 197 198 5
E 198 199 5
E 199 200 5
E 201 202 5
E 202 203 5
E 203 204 5
E 204 205 5
E 176 206 13
E 177 207 13
E 178 208 13
E 179 210 13
E 181 211 13
E 182 212 13
E 183 213 13
E 184 214 13
E 185 215 13
E 186 216 13
E 187 217 13
E 188 218 13
E 189 219 13
E 190 220 13
E 191 221 13
E 192 222 13
E 193 223 13
E 194 224 13
E 195 225 13
E 196 226 13
E 197 227 13
E 198 228 13
E 199 229 13
E 200 230 13
E 201 232 13
E 202 233 13
E 203 234 13
E 204 235 13
E 205 236 13
E 206 207 5
E 207 208 5
E 208 209 5
E 209 210 5
E 211 212 5
E 212 213 5
E 213 214 5
E 214 215 5
E 215 216 5
E 216 217 5
E 217 218 5
E 218 219 5
E 219 220 5
E 220 221 5
E 221 222 5
E 222 223 5
E 223 224 5
E 224 225 5
E 225 226 5
E 226 227 5
E 227 228 5
E 228 229 5
E 229 230 5
E 230 231 5
E 231 232 5
E 232 233 5
E 233 234 5
E 234 235 5
E 235 236 5
E 206 237 13
E 207 238 13
E 208 239 13
E 209 240 13
E 210 241 13
E 211 242 13
E 213 243 13
E 214 244 13
E 215 245 13
E 216 246 13
E 217 247 13
E 220 250 13
E 221 251 13
E 222 252 13
E 223 253 13
E 224 254 13
E 226 255 13
E 227 256 13
E 228 257 13
E 230 258 13
E 231 259 13
E 232 260 13
E 233 261 13
E 234 262 13
E 235 263 13
E 236 264 13
E 237 238 5
E 238 239 5
E 239 240 5
E 240 241 5
E 243 244 5
E 244 245 5
E 245 246 5
E 246 247 5
E 247 248 5
E 248 249 5
E 249 250 5
E 250 251 5
E 251 252 5
E 252 253 5
E 253 254 5
E 255 256 5
E 256 257 5
E 258 259 5
E 259 260 5
E 260 261 5
E 261 262 5
E 262 263 5
E 263 264 5
E 237 265 13
E 238 266 13
E 239 267 13
E 241 268 13
E 242 270 13
E 243 271 13
E 244 272 13
E 245 273 13
E 247 274 13
E 248 275 13
E 249 276 13
E 252 279 13
E 253 280 13
E 254 281 13
E 255 282 13
E 256 283 13
E 257 284 13
E 258 285 13
E 259 286 13
E 261 288 13
E 264 291 13
E 265 266 5
E 266 267 5
E 268 269 5
E 269 270 5
E 271 272 5
E 272 273 5
E 274 275 5
E 275 276 5
E 276 277 5
E 277 278 5
E 278 279 5
E 279 280 5
E 280 281 5
E 282 283 5
E 283 284 5
E 285 286 5
E 286 287 5
E 287 288 5
E 288 289 5
E 289 290 5
E 290 291 5
E 265 292 13
E 266 293 13
E 267 294 13
E 268 295 13
E 269 296 13
E 270 297 13
E 271 299 13
E 272 300 13
E 273 301 13
E 274 302 13
E 275 303 13
E 276 304 13
E 278 306 13
E 279 307 13
E 280 308 13
E 281 309 13
E 282 311 13
E 283 312 13
E 284 313 13
E 285 315 13
E 286 316 13
E 287 317 13
E 288 318 13
E 289 319 13
E 290 320 13
E 291 321 13
E 292 293 5
E 293 294 5
E 295 296 5
E 296 297 5
E 297 298 5
E 298 299 5
E 299 300 5
E 300 301 5
E 302 303 5
E 303 304 5
E 304 305 5
E 305 306 5
E 306 307 5
E 307 308 5
E 308 309 5
E 309 310 5
E 310 311 5
E 311 312 5
E 312 313 5
E 313 314 5
E 314 315 5
E 315 316 5
E 316 317 5
E 317 318 5
E 318 319 5
E 319 320 5
E 320 321 5
E 292 322 13
E 293 323 13
E 294 324 13
E 295 326 13
E 296 327 13
E 297 328 13
E 298 329 13
E 299 330 13
E 301 331 13
E 302 333 13
E 303 334 13
E 304 335 13
E 305 336 13
E 306 337 13
E 307 338 13
E 309 340 13
E 310 341 13
E 311 342 13
E 312 343 13
E 313 344 13
E 314 345 13
E 315 346 13
E 316 347 13
E 319 350 13
E 320 351 13
E 321 352 13
E 322 323 5
E 323 324 5
E 324 325 5
E 325 326 5
E 326 327 5
E 327 328 5
E 328 329 5
E 329 330 5
E 331 332 5
E 332 333 5
E 333 334 5
E 334 335 5
E 335 336 5
E 336 337 5
E 337 338 5
E 338 339 5
E 339 340 5
E 340 341 5
E 341 342 5
E 342 343 5
E 343 344 5
E 344 345 5
E 345 346 5
E 346 347 5
E 347 348 5
E 348 349 5
E 349 350 5
E 350 351 5
E 351 352 5
E 322 353 13
E 323 354 13
E 324 355 13
E 325 356 13
E 326 357 13
E 327 358 13
E 328 359 13
E 329 360 13
E 330 361 13
E 331 362 13
E 332 363 13
E 333 364 13
E 334 365 13
E 335 366 13
E 337 368 13
E 338 369 13
E 339 370 13
E 340 371 13
E 342 372 13
E 343 373 13
E 344 374 13
E 345 375 13
E 346 376 13
E 347 377 13
E 348 378 13
E 349 379 13
E 350 380 13
E 351 381 13
E 352 382 13
E 353 354 5
E 354 355 5
E 355 356 5
E 356 357 5
E 357 358 5
E 358 359 5
E 359 360 5
E 360 361 5
E 362 363 5
E 363 364 5
E 364 365 5
E 365 366 5
E 366 367 5
E 367 368 5
E 368 369 5
E 369 370 5
E 370 371 5
E 372 373 5
E 373 374 5
E 374 375 5
E 375 376 5
E 376 377 5
E 377 378 5
E 378 379 5
E 379 380 5
E 380 381 5
E 381 382 5
E 353 383 13
E 354 384 13
E 355 385 13
E 359 386 13
E 360 387 13
E 361 388 13
E 362 390 13
E 363 391 13
E 364 392 13
E 365 393 13
E 366 394 13
E 367 395 13
E 368 396 13
E 369 397 13
E 370 398 13
E 371 399 13
E 372 400 13
E 373 401 13
E 374 402 13
E 375 403 13
E 376 404 13
E 377 405 13
E 378 406 13
E 379 407 13
E 380 408 13
E 381 409 13
E 382 410 13
E 383 384 5
E 384 385 5
E 386 387 5
E 387 388 5
E 388 389 5
E 389 390 5
E 390 391 5
E 391 392 5
E 392 393 5
E 393 394 5
E 394 395 5
E 395 396 5
E 396 397 5
E 397 398 5
E 398 399 5
E 400 401 5
E 401 402 5
E 402 403 5
E 403 404 5
E 404 405 5
E 405 406 5
E 406 407 5
E 407 408 5
E 408 409 5
E 409 410 5
E 383 411 13
E 385 412 13
E 386 416 13
E 387 417 13
E 388 418 13
E 389 419 13
E 390 420 13
E 391 421 13
E 392 422 13
E 393 423 13
E 395 424 13
E 396 425 13
E 397 426 13
E 398 427 13
E 399 428 13
E 400 430 13
E 401 431 13
E 402 432 13
E 403 433 13
E 404 434 13
E 405 435 13
E 406 436 13
E 407 437 13
E 408 438 13
E 409 439 13
E 410 440 13
E 412 413 5
E 413 414 5
E 414 415 5
E 415 416 5
E 416 417 5
E 417 418 5
E 418 419 5
E 419 420 5
E 420 421 5
E 421 422 5
E 422 423 5
E 424 425 5
E 425 426 5
E 426 427 5
E 427 428 5
E 428 429 5
E 429 430 5
E 430 431 5
E 431 432 5
E 432 433 5
E 433 434 5
E 434 435 5
E 435 436 5
E 436 437 5
E 437 438 5
E 438 439 5
E 439 440 5
E 411 441 13
E 412 442 13
E 413 443 13
E 414 444 13
E 415 445 13
E 416 446 13
E 417 447 13
E 418 448 13
E 419 449 13
E 420 450 13
E 423 453 13
E 424 454 13
E 425 455 13
E 426 456 13
E 427 457 13
E 428 458 13
E 429 459 13
E 430 460 13
E 431 461 13
E 432 462 13
E 434 463 13
E 435 464 13
E 436 465 13
E 437 466 13
E 438 467 13
E 439 468 13
E 440 469 13
E 442 443 5
E 443 444 5
E 444 445 5
E 445 446 5
E 446 447 5
E 447 448 5
E 448 449 5
E 449 450 5
E 450 451 5
E 451 452 5
E 452 453 5
E 454 455 5
E 455 456 5
E 456 457 5
E 457 458 5
E 458 459 5
E 459 460 5
E 460 461 5
E 461 462 5
E 463 464 5
E 464 465 5
E 465 466 5
E 466 467 5
E 467 468 5
E 468 469 5
E 441 470 13
E 442 472 13
E 443 473 13
E 444 474 13
E 447 477 13
E 448 478 13
E 449 479 13
E 450 480 13
E 451 481 13
E 452 482 13
E 453 483 13
E 454 485 13
E 455 486 13
E 458 489 13
E 459 490 13
E 460 491 13
E 461 492 13
E 462 493 13
E 463 494 13
E 466 497 13
E 467 498 13
E 469 499 13
E 470 471 5
E 471 472 5
E 472 473 5
E 473 474 5
E 474 475 5
E 475 476 5
E 476 477 5
E 477 478 5
E 478 479 5
E 479 480 5
E 480 481 5
E 481 482 5
E 482 483 5
E 483 484 5
E 484 485 5
E 485 486 5
E 486 487 5
E 487 488 5
E 488 489 5
E 489 490 5
E 490 491 5
E 491 492 5
E 492 493 5
E 494 495 5
E 495 496 5
E 496 497 5
E 497 498 5
END

SECTION Terminals
Terminals 16
T 6
T 8
T 10
T 16
T 110
T 121
T 180
T 212
T 225
T 240
T 246
T 263
T 300
T 341
T 384
T 394
END

SECTION Tree Decomposition
c We do not guarantee that this tree decomposition has minimum width.
s td 418 18 499
b 1 1 2
b 2 499 469
b 3 498 497 467
b 4 25 26 24
b 5 496 495 497
b 6 495 494 497
b 7 2 32 3
b 8 26 24 27
b 9 411 441 383
b 10 441 470 383
b 11 117 85 116
b 12 469 440 468
b 13 488 487 489
b 14 6 7 5
b 15 470 471 383
b 16 471 472 383
b 17 475 476 474
b 18 476 474 477
b 19 484 485 483
b 20 8 7 9
b 21 487 486 489
b 22 493 462 492
b 23 494 497 463
b 24 31 30 57
b 25 36 63 7
b 26 37 64 9
b 27 10 9 11
b 28 43 17 70
b 29 171 142 200
b 30 205 236 204
b 31 16 17 15
b 32 58 86 59
b 33 242 211 270
b 34 63 7 92
b 35 64 9 94
b 36 17 70 15
b 37 277 278 276
b 38 18 44 19
b 39 497 466 463 467
b 40 86 87 118 59
b 41 440 468 439 410
b 42 468 439 410 467
b 43 462 492 461 432
b 44 492 461 491 432
b 45 32 3 33 59
b 46 30 57 56 29
b 47 3 33 4 59
b 48 44 19 45 72
b 49 57 56 85 29
b 50 236 235 204 264
b 51 19 45 20 72
b 52 22 21 48 23
b 53 348 349 378 347
b 54 352 321 351 382
b 55 353 322 354 383
b 56 445 415 446 444
b 57 356 325 357 355
b 58 358 357 327 359
b 59 361 330 360 388
b 60 110 78 111 109
b 61 28 29 54 27
b 62 91 123 90 92
b 63 362 363 390 331
b 64 367 366 368 395
b 65 93 94 125 92
b 66 371 399 370 340
b 67 372 400 373 342
b 68 24 23 50 27
b 69 95 127 94 96
b 70 384 385 354 383
b 71 386 387 416 359
b 72 429 459 428 430
b 73 389 390 419 388
b 74 394 366 395 393
b 75 101 133 102 100
b 76 412 442 413 385
b 77 424 454 425 395
b 78 423 422 453 393
b 79 414 415 413 444
b 80 421 422 391 420
b 81 106 107 74 105
b 82 433 434 403 432
b 83 7 9 92 5
b 84 490 491 459 489
b 85 451 481 452 450
b 86 456 457 455 426
b 87 121 89 120 122
b 88 474 473 444 477
b 89 478 477 448 479
b 90 485 486 454 483
b 91 482 481 452 483
b 92 480 481 450 479
b 93 126 127 94 125
b 94 35 62 34 5
b 95 138 139 167 137
b 96 141 170 109 140
b 97 142 143 200 111
b 98 147 175 116 146
b 99 148 118 149 176
b 100 38 65 39 11
b 101 150 178 149 120
b 102 151 179 122 152
b 103 155 156 183 154
b 104 42 69 41 15
b 105 172 201 173 144
b 106 180 179 152 181
b 107 12 39 13 11
b 108 472 442 473 383
b 109 199 229 200 198
b 110 51 52 79 50
b 111 206 176 207 237
b 112 209 240 210 208
b 113 211 212 181 270
b 114 464 465 463 435
b 115 218 219 188 217
b 116 225 195 226 224
b 117 14 41 13 15
b 118 231 259 230 232
b 119 241 240 210 268
b 120 243 271 244 213
b 121 246 216 245 247
b 122 248 275 247 249
b 123 250 251 220 249
b 124 254 281 253 224
b 125 255 282 256 226
b 126 257 284 256 228
b 127 258 285 259 230
b 128 260 259 232 261
b 129 262 263 234 261
b 130 265 292 266 237
b 131 267 294 266 239
b 132 269 296 268 270
b 133 273 301 272 245
b 134 274 302 275 247
b 135 70 71 102 15
b 136 278 306 276 279
b 137 287 317 286 288
b 138 289 290 319 288
b 139 291 290 321 264
b 140 295 296 326 268
b 141 298 329 297 299
b 142 300 301 272 299
b 143 305 336 304 306
b 144 308 280 309 307
b 145 310 341 311 309
b 146 314 345 315 313
b 147 318 317 319 288
b 148 332 363 331 333
b 149 339 370 338 340
b 150 439 410 409 438 467
b 151 415 446 413 444 416
b 152 461 460 431 491 432
b 153 410 409 438 467 382
b 154 446 413 444 447 416
b 155 481 452 450 479 483
b 156 452 450 453 479 483
b 157 33 4 34 60 59
b 158 4 34 60 59 5
b 159 45 20 46 73 72
b 160 229 200 228 230 198
b 161 56 85 84 55 29
b 162 85 84 55 29 116
b 163 84 55 29 83 116
b 164 55 29 54 83 116
b 165 29 54 83 116 27
b 166 465 466 463 436 435
b 167 263 235 234 261 264
b 168 235 234 204 261 264
b 169 127 94 125 96 128
b 170 317 316 286 319 288
b 171 20 46 73 21 72
b 172 325 357 355 326 324
b 173 240 210 208 239 268
b 174 336 304 306 335 337
b 175 210 179 208 239 268
b 176 341 342 311 309 340
b 177 87 119 118 59 88
b 178 349 378 379 350 347
b 179 400 373 342 401 430
b 180 399 370 398 428 340
b 181 107 74 75 108 105
b 182 457 427 455 426 458
b 183 143 112 200 144 111
b 184 486 454 455 489 483
b 185 139 167 137 168 140
b 186 9 94 92 5 11
b 187 170 169 109 140 198
b 188 175 174 204 116 146
b 189 156 183 184 157 154
b 190 178 177 149 120 208
b 191 201 202 173 144 232
b 192 52 79 50 53 80
b 193 330 360 329 299 388
b 194 219 188 189 217 220
b 195 212 182 213 181 270
b 196 62 34 61 90 5
b 197 34 60 61 59 90 5
b 198 60 61 59 88 90 5
b 199 61 89 59 88 90 5
b 200 251 221 252 220 249
b 201 65 39 66 11 96
b 202 271 272 244 213 299
b 203 69 41 68 15 100
b 204 281 280 253 224 309
b 205 282 283 256 311 226
b 206 284 283 256 313 228
b 207 285 259 286 315 230
b 208 71 102 103 15 72
b 209 292 293 266 322 237
b 210 294 293 266 239 324
b 211 301 272 245 299 331
b 212 272 244 245 213 299 331
b 213 244 214 245 213 299 331
b 214 302 275 303 247 333
b 215 460 431 491 459 430 432
b 216 431 491 459 401 430 432
b 217 491 459 489 401 430 432
b 218 119 118 149 120 59 88
b 219 118 149 176 120 59 88
b 220 177 149 176 207 120 208
b 221 149 176 207 120 59 88 208
b 222 176 207 120 59 88 208 237
b 223 207 120 59 88 208 237 238
b 224 409 438 408 467 381 382
b 225 438 408 437 467 381 382
b 226 275 276 303 247 249 333
b 227 454 425 455 489 395 483
b 228 41 68 40 13 15 100
b 229 39 66 40 13 11 96
b 230 169 168 109 140 197 198
b 231 46 73 74 47 21 72
b 232 73 74 47 21 72 105
b 233 427 455 426 398 428 458
b 234 442 443 473 413 385 383
b 235 443 473 413 444 385 383
b 236 473 413 444 477 385 383
b 237 360 329 387 359 299 388
b 238 259 286 315 230 232 261
b 239 234 233 203 204 261 264
b 240 54 83 82 116 53 27
b 241 83 115 82 116 53 27
b 242 466 463 436 435 437 467
b 243 463 436 435 437 467 434
b 244 436 435 437 467 406 434
b 245 435 437 467 406 405 434
b 246 370 338 369 398 428 340
b 247 357 355 326 327 359 324
b 248 280 253 224 309 279 307
b 249 182 183 213 154 181 270
b 250 79 78 50 53 80 111
b 251 413 444 447 477 416 385 383
b 252 74 47 75 21 108 72 105
b 253 47 75 21 48 108 72 105
b 254 75 21 48 76 108 72 105
b 255 21 48 76 23 108 72 105
b 256 48 76 49 23 108 72 105
b 257 76 49 23 108 77 72 105
b 258 49 23 108 50 77 72 105
b 259 23 108 50 77 27 72 105
b 260 344 345 374 313 343
b 261 323 293 322 324 354
b 262 98 67 97 99 130
b 263 402 403 374 401 432
b 264 104 103 72 105 136
b 265 418 419 388 417 448
b 266 320 290 321 351 319
b 267 290 321 351 319 288 264
b 268 321 351 382 319 288 264
b 269 129 97 130 128 158
b 270 131 99 130 132 160
b 271 135 134 103 136 164
b 272 407 408 437 379 406
b 273 145 173 114 146 144
b 274 404 405 434 376 403
b 275 81 82 113 53 80
b 276 161 189 162 132 160
b 277 223 222 253 193 224
b 278 163 134 162 164 191
b 279 165 166 193 136 164
b 280 153 152 124 154 181
b 281 397 426 396 369 398
b 282 159 130 158 187 160
b 283 185 215 186 184 157
b 284 190 189 162 191 220
b 285 192 222 193 164 191
b 286 346 345 376 315 347
b 287 194 166 195 193 224
b 288 196 195 168 197 226
b 289 392 422 391 364 393
b 290 422 391 364 453 420 393
b 291 334 303 335 333 365
b 292 227 256 228 197 226
b 293 449 450 419 448 479
b 294 380 408 379 350 381
b 295 377 378 405 376 347
b 296 375 345 376 403 374
b 297 312 283 311 313 343
b 298 283 256 311 313 343 228 226
b 299 256 311 313 343 228 197 226
b 300 328 329 297 327 359
b 301 329 387 297 327 359 299 388
b 302 112 200 144 113 80 111
b 303 167 137 166 195 168 140
b 304 174 203 204 173 116 146
b 305 188 189 187 160 217 220
b 306 202 233 203 173 144 232
b 307 221 252 222 191 220 249
b 308 373 342 374 343 401 430
b 309 296 326 297 327 268 270
b 310 363 391 364 390 331 333
b 311 304 306 276 303 335 337
b 312 293 266 322 237 239 324 354
b 313 266 322 237 238 239 324 354
b 314 322 237 238 239 324 354 383
b 315 459 489 428 458 401 430 432
b 316 89 120 59 88 90 122 5
b 317 183 213 184 157 154 181 270
b 318 123 90 122 152 92 124
b 319 133 102 134 162 100 132
b 320 366 335 368 395 365 393
b 321 316 286 319 288 315 347
b 322 216 245 215 186 217 247
b 323 447 477 416 385 383 417 448
b 324 477 416 385 383 417 448 479
b 325 252 222 253 191 220 249 279
b 326 351 350 381 382 319 288 264
b 327 115 82 116 114 146 53 27
b 328 425 455 426 396 489 395 483
b 329 137 166 195 168 140 105 136
b 330 68 40 13 67 99 15 100
b 331 78 50 77 53 80 111 109
b 332 66 40 13 67 97 11 96
b 333 306 276 303 335 337 279 307
b 334 378 379 406 405 350 376 347
b 335 450 453 420 419 448 479 483
b 336 233 203 204 173 144 232 261 264
b 337 82 116 114 146 113 53 27 80
b 338 203 204 173 116 146 144 232 261 264
b 339 173 116 114 146 144 232 261 264
b 340 355 326 327 359 385 324 354
b 341 214 245 215 213 184 299 331
b 342 94 125 92 5 11 96 128
b 343 286 319 288 315 347 230 232 261
b 344 391 364 390 453 420 331 333 393
b 345 364 390 453 420 331 333 365 393
b 346 387 416 297 327 359 299 388 417
b 347 408 437 467 379 406 350 381 382
b 348 437 467 379 406 405 434 350 381 382
b 349 379 406 405 434 350 381 382 376 347
b 350 405 434 350 381 382 376 403 347
b 351 434 350 381 382 376 403 347 432
b 352 40 13 67 97 99 11 96 15 100
b 353 67 97 99 130 11 96 15 100
b 354 97 99 130 11 96 128 158 15 100
b 355 338 369 398 428 337 307 340
b 356 125 92 5 124 154 11 96 128
b 357 108 50 77 27 109 140 72 105
b 358 189 162 187 132 160 217 191 220
b 359 455 426 396 398 489 428 458 395 483
b 360 426 396 369 398 489 428 458 395 483
b 361 396 369 398 489 428 458 368 395 483
b 362 120 59 88 90 122 208 5 237 238
b 363 179 122 208 152 239 268 181
b 364 102 134 103 162 15 100 132 72
b 365 276 303 335 337 247 249 279 307 333
b 366 303 335 337 247 249 279 307 333 365
b 367 390 453 420 419 331 388 333 365 393
b 368 90 122 208 152 92 5 124 237 238
b 369 350 381 382 376 403 319 288 347 264 432
b 370 99 130 11 96 128 158 15 100 132 160
b 371 130 11 96 128 158 187 15 100 132 160
b 372 50 77 53 27 80 111 109 140 72 105
b 373 345 376 403 315 347 374 313 343
b 374 342 311 374 343 309 340 401 430
b 375 326 297 327 359 385 268 324 354 270
b 376 222 253 193 224 164 191 220 249 279
b 377 253 193 224 309 164 191 220 249 279 307
b 378 245 215 186 213 184 299 331 217 247
b 379 215 186 213 184 157 299 331 217 247
b 380 200 144 113 80 111 228 230 198
b 381 166 195 168 140 193 224 105 136 164
b 382 195 168 140 197 226 193 224 105 136 164
b 383 168 109 140 197 198 226 193 224 105 136 164
b 384 186 213 184 157 299 158 331 187 217 247
b 385 122 208 152 92 5 124 237 238 239 268 181
b 386 152 92 5 124 237 238 239 268 154 181
b 387 134 103 162 15 100 132 72 136 164 191
b 388 103 162 15 100 132 72 105 136 164 191
b 389 376 403 319 288 315 347 374 313 343 264 432
b 390 403 319 288 315 347 374 313 343 264 401 432
b 391 369 398 489 428 458 368 337 395 307 340 483
b 392 453 420 419 331 388 448 479 333 365 393 483
b 393 419 331 388 417 448 479 333 365 393 483
b 394 116 114 146 144 113 53 27 80 232 261 264
b 395 92 5 124 237 238 239 268 154 181 11 96 128
b 396 335 368 337 395 247 249 279 307 333 365 393
b 397 237 238 239 268 324 354 383 154 181 11 96 128
b 398 489 428 458 368 337 395 307 340 401 430 432 483
b 399 144 113 53 27 80 111 228 230 232 261 264 198
b 400 319 288 315 347 374 313 343 230 232 261 264 401 432
b 401 416 297 327 359 385 383 299 388 417 448 479
b 402 213 184 157 154 181 270 299 158 331 187 217 247
b 403 157 154 181 270 299 128 158 331 187 217 247
b 404 311 374 313 343 228 197 226 309 340 401 430
b 405 162 187 15 100 132 160 217 72 105 136 164 191 220
b 406 53 27 80 111 228 230 232 261 264 109 140 198 72 105
b 407 297 327 359 385 268 324 354 383 270 299 388 417 448 479
b 408 374 313 343 228 230 232 261 264 197 226 309 340 401 430 432
b 409 268 324 354 383 154 181 270 299 11 96 128 388 417 448 479
b 410 154 181 270 299 11 96 128 158 331 388 417 448 479 187 217 247
b 411 11 96 128 158 331 388 417 448 479 187 15 100 132 160 217 247
b 412 331 388 417 448 479 187 15 100 132 160 217 247 333 365 393 483
b 413 368 337 395 247 249 279 307 333 340 365 393 401 430 432 483
b 414 228 230 232 261 264 109 140 197 198 226 309 72 105 340 401 430 432
b 415 109 140 197 198 226 193 224 309 72 105 136 164 340 401 430 432
b 416 193 224 309 72 105 136 164 191 220 249 279 307 340 401 430 432
b 417 187 15 100 132 160 217 72 105 136 164 191 220 247 333 365 393 483
b 418 72 105 136 164 191 220 247 249 279 307 333 340 365 393 401 430 432 483
1 7
7 45
45 47
47 157
157 158
158 197
197 198
198 199
199 316
316 362
362 223
362 368
368 385
385 386
386 395
395 397
397 409
409 410
410 411
411 412
412 417
417 405
417 418
418 416
418 413
416 415
415 414
414 408
415 383
413 396
414 406
408 404
406 399
410 403
409 407
403 402
407 401
408 400
400 390
390 389
383 382
413 398
402 384
398 391
411 371
412 393
371 370
393 392
405 388
416 377
388 387
396 366
406 372
399 394
407 375
384 379
391 361
370 354
392 367
382 381
377 376
366 365
379 378
361 360
360 359
395 356
404 374
399 380
401 346
400 343
389 373
389 369
387 364
372 357
394 337
394 339
354 353
367 345
369 351
339 338
353 352
345 344
351 350
338 336
405 358
350 349
349 348
348 347
385 363
359 328
404 299
397 314
402 317
401 324
398 315
391 355
392 335
372 331
375 340
381 329
365 333
378 341
356 342
346 301
369 326
357 259
337 327
376 325
349 334
352 332
352 330
299 298
314 313
324 323
223 222
259 258
313 312
222 221
258 257
257 256
256 255
255 254
254 253
253 252
383 230
396 320
377 248
375 309
365 226
378 322
359 233
374 308
380 302
343 238
343 321
364 319
338 304
344 310
344 290
336 239
336 306
358 305
348 245
245 244
244 243
243 242
347 225
225 224
317 249
315 217
355 246
217 216
216 215
331 250
340 247
329 303
333 311
341 213
213 212
301 237
326 268
368 318
268 267
327 241
241 240
325 307
332 229
330 228
323 251
251 236
236 235
235 234
221 219
219 218
221 220
328 227
252 232
232 231
242 166
224 153
226 214
249 195
238 207
321 170
246 180
215 152
250 192
247 172
303 185
304 188
311 174
212 202
212 211
237 193
290 289
239 168
386 280
267 266
240 165
307 200
229 201
306 191
228 203
233 182
251 154
305 194
302 183
218 177
220 190
227 184
308 179
231 171
153 150
168 167
165 164
154 151
171 159
164 163
163 162
162 161
197 196
390 263
382 288
371 282
393 265
370 270
388 264
387 278
387 271
366 291
379 283
354 269
381 287
381 279
376 285
376 277
360 281
374 176
380 160
373 286
373 296
373 260
364 208
337 275
339 273
353 262
350 274
358 276
358 284
347 294
363 175
175 173
299 292
317 189
335 156
335 293
156 155
342 169
342 186
301 300
334 178
334 295
298 206
298 205
298 297
347 272
312 209
312 261
312 210
252 181
230 187
248 204
242 39
166 114
217 84
246 149
247 58
268 54
318 62
267 138
267 139
229 107
228 117
236 88
234 108
219 99
227 77
214 134
195 113
207 127
170 137
170 147
180 66
152 44
192 110
172 57
185 95
188 98
174 143
202 120
211 133
211 142
193 59
168 50
165 61
200 123
201 100
191 105
203 104
309 140
194 115
183 97
177 40
190 101
184 90
179 67
167 129
150 42
151 56
151 79
159 51
309 132
196 94
238 118
226 122
322 121
176 145
160 109
208 135
238 128
173 112
173 119
161 49
189 103
319 75
155 85
155 92
155 91
169 69
169 93
186 83
178 53
206 126
310 63
205 125
209 130
310 148
290 80
210 131
181 81
290 78
187 96
204 124
44 43
407 70
42 41
51 48
49 46
382 116
182 86
320 74
320 64
316 87
367 73
346 71
373 146
351 82
363 102
363 106
314 55
324 89
315 72
331 60
333 136
342 65
301 141
259 68
222 111
255 52
234 76
248 144
136 37
113 33
186 35
35 26
184 21
21 13
162 11
186 27
39 3
39 23
23 6
6 5
88 18
18 17
108 16
16 15
15 10
10 9
50 30
97 29
40 32
90 19
41 12
83 34
34 25
46 24
43 22
48 38
83 20
83 14
135 36
36 28
36 31
68 8
8 4
12 2
END

EOF
